objective value:                                  -64
t_x16                                               1 	(obj:-100)
t_y16_172                                           1 	(obj:1)
t_y16_327                                           1 	(obj:1)
t_y16_210                                           1 	(obj:1)
t_y16_370                                           1 	(obj:1)
t_y16_139                                           1 	(obj:1)
t_y16_247                                           1 	(obj:1)
t_y16_548                                           1 	(obj:1)
t_y16_443                                           1 	(obj:1)
t_y16_423                                           1 	(obj:1)
t_y16_90                                            1 	(obj:1)
t_y16_337                                           1 	(obj:1)
t_y16_460                                           1 	(obj:1)
t_y16_572                                           1 	(obj:1)
t_y16_288                                           1 	(obj:1)
t_y16_187                                           1 	(obj:1)
t_y16_560                                           1 	(obj:1)
t_y16_415                                           1 	(obj:1)
t_y16_82                                            1 	(obj:1)
t_y16_294                                           1 	(obj:1)
t_y16_32                                            1 	(obj:1)
t_y16_366                                           1 	(obj:1)
t_y16_155                                           1 	(obj:1)
t_y16_367                                           1 	(obj:1)
t_y16_332                                           1 	(obj:1)
t_y16_35                                            1 	(obj:1)
t_y16_282                                           1 	(obj:1)
t_y16_72                                            1 	(obj:1)
t_y16_145                                           1 	(obj:1)
t_y15_16                                            1 	(obj:1)
t_y16_147                                           1 	(obj:1)
t_y5_16                                             1 	(obj:1)
t_y16_345                                           1 	(obj:1)
t_y16_242                                           1 	(obj:1)
t_y16_222                                           1 	(obj:1)
t_y16_397                                           1 	(obj:1)
t_y16_49                                            1 	(obj:1)
